svm_type epsilon_svr
kernel_type rbf
gamma 6.72
nr_class 2
total_sv 556
rho -1.59404
SV
-0.5956549649929221 1:-0.0774472 2:-0.0898874 3:0.733127 4:0.446024 5:-0.118415 6:-0.388688 7:-0.313241 
0.01110073006092364 1:0.0528965 2:-0.0238445 3:0.402156 4:-0.0322102 5:0.282339 6:0.446441 7:-0.151983 
-1.482484515255238 1:-0.00763175 2:0.00380274 3:0.578644 4:0.452359 5:0.13334 6:-0.39593 7:0.142322 
-1.68 1:-0.0219048 2:0.0373556 3:0.580545 4:-0.25827 5:0.326726 6:0.139136 7:0.0841194 
-1.68 1:-0.297938 2:-0.109997 3:0.417808 4:0.162472 5:0.00612927 6:-0.0147747 7:-0.030372 
0.7630934324489967 1:0.225838 2:-0.0215535 3:0.868087 4:0.332981 5:-0.115416 6:-0.00742112 7:0.00848708 
-1.68 1:0.264228 2:-0.161003 3:0.833188 4:0.0112709 5:-0.00026462 6:0.0150815 7:-0.0107658 
-0.7735817473033297 1:0.0726095 2:0.13985 3:0.70937 4:-0.0168572 5:-0.00769342 6:0.0988927 7:0.290981 
-0.824358933456419 1:-0.00342706 2:0.00123234 3:0.527405 4:-0.0433428 5:0.0240303 6:-0.464319 7:0.115288 
1.68 1:-0.169296 2:-0.128876 3:0.613143 4:-0.437699 5:0.19314 6:-0.000590493 7:0.0093052 
-1.087304654032833 1:0.00463441 2:0.00513898 3:0.479112 4:0.00562429 5:0.00743658 6:0.342248 7:0.310241 
0.1872309930351799 1:0.211265 2:-0.215027 3:0.885174 4:0.298704 5:0.352362 6:-0.0048325 7:0.0091699 
-1.307065528568356 1:0.130278 2:0.0772799 3:0.270819 4:0.00968504 5:-0.00369324 6:0.0103222 7:0.00399727 
1.68 1:-0.067206 2:-0.0718104 3:0.47928 4:-0.00261669 5:0.0107554 6:-0.115563 7:-0.24604 
-1.171948463595235 1:0.163964 2:-0.148564 3:0.755799 4:-0.0826432 5:-0.25896 6:0.0126196 7:-0.0357894 
-1.68 1:-0.00369252 2:-0.000401242 3:0.466714 4:0.00579639 5:-0.00730365 6:-0.172164 7:-0.0712214 
-1.68 1:-0.0186835 2:0.00680198 3:0.486922 4:0.437817 5:-0.20523 6:-0.168789 7:0.257768 
1.209975228562388 1:0.00754397 2:-0.411836 3:0.429288 4:0.0799233 5:0.208997 6:-0.00630535 7:-0.0136067 
1.68 1:-0.122379 2:0.110978 3:0.677804 4:0.000155247 5:-0.0149958 6:-0.00870031 7:0.0183854 
1.68 1:0.0855079 2:-0.0136411 3:0.496964 4:0.0127134 5:0.0158773 6:-0.00253863 7:0.0111625 
-0.6659172556813954 1:0.00482699 2:0.014942 3:0.571824 4:0.109401 5:0.151642 6:-0.181041 7:0.130515 
0.3678631284866591 1:0.146188 2:0.111553 3:0.704291 4:-0.105996 5:0.196405 6:0.26644 7:0.238711 
-1.08608243385327 1:0.0477694 2:0.10209 3:0.894182 4:0.304407 5:-0.187909 6:0.0087726 7:-0.0163782 
0.06389215719513826 1:0.264345 2:-0.160404 3:0.180818 4:-0.0170087 5:0.00747718 6:0.00969964 7:-0.00731947 
-1.68 1:0.000494831 2:-0.00563426 3:0.444437 4:0.00255402 5:0.01188 6:-0.0336195 7:-0.291714 
-1.68 1:0.0908405 2:0.0304382 3:0.44545 4:0.423446 5:0.135506 6:0.0225135 7:-0.00693406 
1.68 1:0.0868106 2:-0.0541364 3:0.663885 4:-0.00571078 5:-0.175069 6:-0.00406379 7:0.00858607 
0.3261983064721413 1:0.0436213 2:0.253568 3:0.683756 4:-0.641705 5:-0.252301 6:-0.00444167 7:-0.0104426 
-1.68 1:0.018315 2:-0.00764829 3:0.603966 4:-0.0113468 5:-0.000159591 6:0.0967341 7:-0.141822 
1.392141298259217 1:-0.174762 2:0.124599 3:0.643838 4:0.258446 5:0.349502 6:-0.00941925 7:0.0150586 
1.202644845010411 1:-0.0598077 2:-0.133121 3:0.371012 4:0.273164 5:-0.144851 6:-0.0420899 7:-0.344085 
-0.3862728537338294 1:-0.181667 2:-0.0699277 3:0.744378 4:-0.395369 5:0.262547 6:-0.007303 7:0.00702962 
0.3244709457814124 1:0.0423074 2:-0.124846 3:0.380767 4:0.00676731 5:0.0075467 6:0.0303905 7:-0.413166 
0.8986112099439613 1:-0.102419 2:0.0204414 3:0.435279 4:0.30363 5:-0.281848 6:-0.364679 7:0.152665 
1.68 1:-0.0899854 2:0.182866 3:0.431352 4:-0.323298 5:-0.159543 6:0.00835248 7:0.00869891 
-0.1791071102738713 1:0.0618667 2:0.00181191 3:0.411964 4:0.197644 5:0.30092 6:0.197843 7:-0.169735 
-1.150020849893989 1:-0.134785 2:0.177571 3:0.88079 4:0.296311 5:-0.267617 6:0.00157914 7:0.0200595 
1.68 1:-0.0116504 2:0.101272 3:0.874145 4:0.000994688 5:-0.133584 6:-0.00922007 7:-0.00124647 
1.202868126878311 1:-0.107122 2:0.0668124 3:0.902233 4:-0.0296313 5:-0.388418 6:-0.00206022 7:-0.0194247 
-1.68 1:-0.00103319 2:0.00361344 3:0.551942 4:0.00552166 5:0.00750986 6:0.0171709 7:0.183142 
1.68 1:-0.0651351 2:0.2089 3:0.752086 4:-0.0526597 5:0.122883 6:0.0184845 7:-0.00277737 
-1.68 1:-0.225898 2:0.0221739 3:0.281124 4:-0.0746196 5:0.220052 6:-0.00170535 7:-0.00982408 
-0.1964676109697962 1:0.0040723 2:0.0228552 3:0.427095 4:0.00930546 5:-0.00358178 6:0.0718587 7:0.468749 
1.391265801578183 1:-0.0417736 2:0.196318 3:0.0191672 4:-0.14284 5:0.452201 6:-2.81648e-05 7:-0.0184063 
-0.5893029807928954 1:-0.0234504 2:0.0419391 3:0.460697 4:-0.179061 5:0.355538 6:-0.161369 7:0.394321 
0.09248918531798302 1:-0.22957 2:-0.037466 3:0.75065 4:-0.252864 5:0.342912 6:0.000381617 7:0.0111189 
1.68 1:-0.0667029 2:-0.0558086 3:0.419193 4:0.0111172 5:-0.000427028 6:-0.207581 7:-0.28086 
1.431664455026344 1:0.189289 2:-0.0159711 3:0.0949313 4:-0.15252 5:-0.248716 6:-0.00915539 7:-0.00636319 
1.241143529227333 1:0.192292 2:0.312555 3:0.39064 4:0.27458 5:-0.410531 6:-0.00905322 7:-0.00218314 
0.9935048207090653 1:-0.0789387 2:-0.205022 3:0.426264 4:0.438414 5:-0.0189809 6:0.00250901 7:-0.0141858 
0.5988068134663315 1:-0.173527 2:-0.056298 3:0.636928 4:0.391983 5:0.0333179 6:-0.479482 7:-0.214053 
1.68 1:0.0473987 2:-0.142658 3:0.306563 4:-0.42415 5:0.205138 6:0.00471782 7:0.00802851 
-1.219733250037263 1:-0.290374 2:-0.0188117 3:0.64399 4:-0.0058852 5:0.00721659 6:-0.00221238 7:0.00904356 
1.68 1:0.0819539 2:0.0838904 3:0.274352 4:0.247328 5:-0.0932316 6:-0.00681104 7:-0.00653508 
0.223462117666934 1:-0.213158 2:0.223294 3:0.534711 4:0.127965 5:-0.482431 6:0.00394183 7:0.00910389 
-0.4058985630421758 1:0.0622921 2:-0.240519 3:0.576841 4:0.00581828 5:0.00803533 6:0.123243 7:-0.368911 
0.9860425009526614 1:0.0752708 2:0.0208918 3:0.423369 4:-0.0621165 5:-0.38396 6:0.00793772 7:0.0149978 
1.68 1:-0.192333 2:0.181381 3:0.986701 4:8.98165e-05 5:0.0169686 6:0.00400231 7:0.0107885 
1.25745199153036 1:-0.145491 2:0.226096 3:0.933969 4:-0.378415 5:-0.0851669 6:0.00947721 7:-0.000183416 
-1.68 1:-0.00541434 2:0.00318829 3:0.470998 4:0.0086888 5:0.0200826 6:-0.17719 7:0.0470791 
-1.68 1:-0.0206073 2:-0.00488701 3:0.476986 4:-0.182788 5:0.0141896 6:0.00664924 7:-0.135832 
-1.274894596007018 1:0.209139 2:0.0191165 3:0.0562965 4:0.0261528 5:-0.133456 6:-0.0080939 7:0.00470921 
-1.68 1:0.249426 2:0.110156 3:0.48249 4:0.00596158 5:-0.00722132 6:0.0079945 7:0.00778407 
-1.68 1:0.0952109 2:-0.126536 3:0.251189 4:0.00563067 5:0.00741618 6:-0.000900592 7:0.0110141 
-0.3336310086019452 1:0.12217 2:-0.0756631 3:0.420041 4:-0.131524 5:0.0556244 6:0.128752 7:-0.204466 
-0.4380084890848381 1:-0.0477482 2:-0.0023856 3:0.620272 4:-0.254512 5:0.116165 6:-0.399033 7:-0.187933 
-1.458775154590838 1:-0.269008 2:-0.169741 3:0.566269 4:-0.419298 5:0.136875 6:0.00776699 7:-0.00924638 
1.035772407823675 1:-0.0243861 2:-0.0542512 3:0.554787 4:-0.0232647 5:0.19615 6:-0.224975 7:-0.517822 
-1.68 1:-0.077862 2:-0.0795099 3:0.886296 4:-0.38653 5:-0.411519 6:0.000614203 7:0.00935905 
-0.1695458657119307 1:0.0209086 2:-0.0836938 3:0.442474 4:0.00971406 5:0.0687642 6:0.0416882 7:-0.699318 
1.68 1:-0.14339 2:-0.0873187 3:0.495445 4:0.00350965 5:0.0107433 6:0.00545154 7:-0.00770217 
0.8552515144909233 1:-0.120593 2:0.12315 3:0.476579 4:-0.274878 5:0.283248 6:-0.0937712 7:0.220347 
0.1041924088079903 1:0.0758003 2:0.00580655 3:0.308961 4:-0.110695 5:0.206651 6:0.432564 7:0.134655 
-0.1250710213730569 1:-0.011187 2:-0.00746655 3:0.385677 4:0.0310878 5:0.45197 6:-0.212885 7:-0.24724 
-0.2941338823590324 1:-0.0510794 2:-0.0387509 3:0.49831 4:0.00242822 5:-0.326254 6:-0.345459 7:-0.22609 
0.1823588552752085 1:0.0598228 2:-0.0667449 3:0.19966 4:0.0543739 5:-0.149137 6:0.00956475 7:0.00361853 
1.291254861211526 1:-0.185381 2:-0.40862 3:0.84161 4:0.177159 5:0.190775 6:-0.00875872 7:0.00544484 
1.528319072629436 1:0.0400074 2:-0.434806 3:0.12482 4:0.0111063 5:0.000283732 6:0.0193963 7:0.00312186 
-0.01442141210788531 1:-0.207617 2:-0.128682 3:0.678344 4:-0.0159358 5:0.0114897 6:-0.317682 7:-0.232396 
-1.053440372436373 1:-0.133082 2:0.190872 3:0.438638 4:-0.423765 5:0.0173597 6:0.00802016 7:0.00473569 
1.68 1:0.0523906 2:-0.0540907 3:0.255651 4:0.00563954 5:0.00740701 6:0.010961 7:0.00363097 
-0.7626129255542383 1:-0.0416758 2:0.00287692 3:0.950671 4:0.362496 5:0.372035 6:0.00828041 7:0.0056455 
0.7118332567431978 1:-0.148577 2:0.194063 3:0.34909 4:-0.239497 5:0.287414 6:-0.322642 7:0.320973 
-1.513108738767931 1:0.0921208 2:-0.00137703 3:0.683686 4:-0.448896 5:-0.0749275 6:-0.00533512 7:-0.0109507 
0.07941540762179577 1:-0.0477486 2:-0.064156 3:0.684169 4:-0.012173 5:0.000446795 6:-0.306661 7:-0.436927 
0.5499674343914972 1:0.165615 2:0.11371 3:0.177183 4:-0.523338 5:0.105184 6:0.29207 7:0.224508 
1.68 1:-0.150959 2:-0.141131 3:0.299883 4:0.227124 5:-0.159922 6:0.00514573 7:0.0077785 
0.001791044832770987 1:-0.023959 2:0.0212816 3:0.444309 4:-0.0524784 5:0.125344 6:-0.167306 7:0.285065 
0.4007939433708279 1:0.0203292 2:0.332616 3:0.652118 4:-0.00863601 5:0.264967 6:0.0573089 7:0.437933 
0.1414338504037274 1:-0.137838 2:-0.138445 3:0.759973 4:0.390755 5:0.205865 6:-0.295786 7:-0.311538 
0.6710388706143904 1:0.14074 2:0.0958284 3:0.210893 4:-0.292404 5:0.314715 6:0.0031353 7:0.0128177 
0.1253819608707678 1:-0.0876355 2:-0.121 3:0.14938 4:-0.244543 5:0.0666354 6:0.00603813 7:0.0101786 
1.68 1:0.0381297 2:0.137101 3:0.00740033 4:-0.414536 5:0.0754037 6:-0.0051371 7:-0.00776979 
1.253231841184827 1:0.0692076 2:0.124814 3:0.0974602 4:0.283728 5:-0.24056 6:-0.000624629 7:-0.00998172 
0.07231429302104329 1:0.00369974 2:-0.176595 3:0.647503 4:0.00624863 5:0.00780894 6:0.00689856 7:0.00840372 
-1.568468486961935 1:0.0347917 2:-0.00631666 3:0.615777 4:0.10929 5:-0.209131 6:0.0409301 7:0.16719 
-1.309760450309489 1:0.0896088 2:-0.00351705 3:0.404095 4:-0.104053 5:-0.176712 6:0.333546 7:0.0277243 
0.851368243904959 1:0.281002 2:-0.326531 3:0.839356 4:0.254424 5:0.287312 6:0.0149768 7:-0.0367732 
-0.04712415992053062 1:0.349193 2:0.103619 3:0.619846 4:0.190538 5:0.104284 6:0.00114066 7:-0.0100298 
0.9389997853389224 1:0.44887 2:0.191767 3:0.802173 4:0.00573034 5:0.00735885 6:-0.00527036 7:-0.0077623 
1.68 1:0.179533 2:0.103978 3:0.513373 4:-0.00565202 5:0.00748898 6:0.00377733 7:-0.0109004 
-1.68 1:-0.000946667 2:-0.00171973 3:0.104305 4:-0.00263507 5:-0.0111029 6:0.010117 7:-0.00551735 
-0.3913390142200336 1:0.0250841 2:-0.0386737 3:0.587752 4:0.0910425 5:-0.238092 6:0.14862 7:-0.36602 
0.3971337378402643 1:-0.0246253 2:0.0326421 3:0.440433 4:-0.0651433 5:-0.389634 6:-0.0903348 7:0.336609 
0.4979269656934234 1:0.0563657 2:0.174101 3:0.522479 4:-0.207144 5:0.280281 6:0.00306209 7:0.0235356 
-0.06084560055869592 1:0.0476485 2:-0.055885 3:0.769602 4:-0.465445 5:-0.0867803 6:0.218977 7:-0.362218 
-0.2334399088667893 1:-0.210786 2:0.205003 3:0.894545 4:-0.452696 5:-0.00767104 6:0.00912379 7:0.00218025 
-1.68 1:0.0495002 2:-0.305353 3:0.165762 4:-0.00205535 5:-0.018332 6:0.00804952 7:0.00634273 
1.68 1:0.0046136 2:0.0203649 3:0.342824 4:-0.0902871 5:-0.300965 6:0.118946 7:0.271296 
0.05060916215498053 1:-0.081478 2:0.0961994 3:0.426567 4:-0.160941 5:0.248692 6:-0.322857 7:0.430829 
-0.1951113230502213 1:-0.0769225 2:0.0374518 3:0.513225 4:-0.4809 5:0.242045 6:-0.420896 7:0.322362 
0.8946950273065806 1:0.228629 2:-0.190145 3:0.877895 4:-0.127348 5:-0.139994 6:-0.00822963 7:0.00826437 
1.222628754380921 1:-0.137374 2:0.109785 3:0.809025 4:0.0116606 5:-0.000236702 6:0.00560386 7:-0.00774195 
-1.68 1:0.106743 2:-0.0246729 3:0.638509 4:-0.492787 5:0.146289 6:-0.0159873 7:-0.0350079 
1.68 1:0.114091 2:-0.000611136 3:0.67319 4:-0.470145 5:-0.10098 6:0.00500788 7:-0.00893934 
1.68 1:-0.203912 2:0.388535 3:0.544362 4:-0.00586502 5:-0.00731468 6:0.00427535 7:0.0151131 
-1.68 1:-0.00727875 2:0.00106489 3:0.275585 4:0.00826851 5:0.0133535 6:-0.00524024 7:-0.00770437 
1.237850138380269 1:0.351422 2:0.224437 3:0.597014 4:0.00676627 5:-0.00640586 6:-1.16072e-05 7:-0.0101964 
1.68 1:-0.262784 2:-0.0985456 3:0.510967 4:-0.0475441 5:-0.129689 6:0.0052637 7:0.0075776 
0.8609595126896364 1:-0.0820601 2:0.069386 3:0.3746 4:0.00577294 5:0.00719721 6:-0.207421 7:-0.00937159 
-1.590290707077804 1:-0.0529679 2:0.0239303 3:0.021697 4:-0.139656 5:-0.153646 6:0.0109089 7:0.00270995 
1.68 1:-0.0365801 2:-0.0619621 3:0.277775 4:-0.00911108 5:-0.00288265 6:0.00995541 7:0.00514776 
-1.618709858087886 1:0.0291989 2:-0.0244508 3:0.440158 4:0.222384 5:-0.177186 6:0.156445 7:-0.115632 
-0.8055877947581945 1:-0.0684777 2:-0.195105 3:0.249277 4:0.200806 5:-0.0323882 6:-0.0126718 7:-0.00390443 
0.2570522550541242 1:0.091687 2:-0.286201 3:0.326061 4:0.0831914 5:-0.264616 6:0.00501234 7:-0.0119805 
1.128837710886922 1:0.155022 2:0.0126888 3:0.928229 4:-0.0817315 5:0.286835 6:-0.00923421 7:-0.0041816 
1.238693768921978 1:0.0548789 2:-0.0961858 3:0.474683 4:-0.184766 5:-0.108179 6:0.161047 7:-0.369265 
0.585181841330677 1:0.21606 2:0.0729289 3:0.781995 4:0.217507 5:-0.339093 6:-0.00697243 7:-0.00743389 
-0.4462642578722833 1:-0.0132744 2:0.002961 3:0.635651 4:0.0863092 5:-0.105002 6:-0.29794 7:0.356645 
-0.2818822492539586 1:-0.103321 2:-0.0785003 3:0.837271 4:0.0723696 5:0.45905 6:-0.214063 7:-0.241249 
1.061074334849783 1:0.0959886 2:0.00250527 3:0.371179 4:-0.094295 5:0.308435 6:0.0012946 7:0.00914434 
1.68 1:0.0219772 2:0.00313419 3:0.442714 4:-0.00572619 5:0.00724609 6:0.384021 7:0.154106 
1.488974751962114 1:-0.0138775 2:-0.148073 3:0.306325 4:0.305133 5:0.279491 6:-0.13533 7:-0.313929 
-1.476723135104156 1:0.0114171 2:-0.0984754 3:0.269733 4:0.247574 5:-0.235739 6:-0.0218841 7:-0.329044 
0.7953445000772107 1:-0.0609858 2:0.0275294 3:0.689586 4:0.261131 5:-0.0854327 6:-0.0484967 7:0.18432 
1.68 1:0.18074 2:0.040768 3:0.76962 4:-0.00752743 5:-0.22604 6:0.00467286 7:-0.00924473 
1.68 1:0.0855517 2:-0.121993 3:0.29649 4:-0.00974917 5:-0.00350065 6:0.0051557 7:0.00782445 
1.68 1:0.102178 2:0.120647 3:0.79769 4:0.00633021 5:-0.0165998 6:0.0033387 7:-0.0108068 
-0.08316357506814813 1:-0.37183 2:-0.0945318 3:0.305495 4:0.145196 5:-0.370501 6:0.00548354 7:-0.00822587 
1.68 1:-0.0987058 2:0.0686509 3:0.526158 4:0.128846 5:0.0570754 6:0.00611583 7:0.0195329 
-0.4436365731407899 1:0.0335514 2:-0.0705776 3:0.951492 4:-0.368824 5:0.122351 6:0.0938856 7:-0.335244 
-0.02565344381136976 1:0.0498621 2:-0.0580938 3:0.308465 4:0.0580189 5:-0.176589 6:0.247621 7:-0.430233 
0.123592605392173 1:0.0103179 2:0.090954 3:0.0600649 4:0.49046 5:0.0765867 6:-0.00257492 7:-0.0089597 
-1.68 1:0.0121874 2:-0.0100737 3:0.455601 4:0.00569539 5:0.00738031 6:0.0119352 7:-0.0163607 
0.1939908327332323 1:-0.322041 2:0.145898 3:0.256402 4:-0.162459 5:0.267334 6:-0.00814758 7:-0.00570114 
1.164313563412944 1:0.0189517 2:0.067288 3:0.413806 4:-0.433511 5:0.0876988 6:0.160793 7:0.110111 
-1.68 1:-0.17513 2:-0.148973 3:0.874428 4:-0.132107 5:0.035364 6:-0.00861489 7:0.00848984 
-0.3433191656998563 1:-0.00265295 2:-0.0143381 3:0.342617 4:0.534973 5:0.488972 6:-0.250905 7:-0.17325 
-1.68 1:-0.133827 2:0.265905 3:0.672899 4:-0.102012 5:0.159143 6:-0.00530345 7:0.0100851 
-1.68 1:-0.000304199 2:0.0050858 3:0.512963 4:0.00645477 5:0.00938997 6:-0.178895 7:0.0639963 
1.279669338513401 1:0.104475 2:-0.0201358 3:0.6459 4:-0.588253 5:0.127356 6:0.140208 7:-0.116347 
-1.68 1:0.0488339 2:-0.0675176 3:0.104545 4:-0.00702734 5:-0.182059 6:0.00347552 7:0.00884309 
-0.2003002613790444 1:-0.215627 2:0.141227 3:0.294925 4:-0.416101 5:-0.0216573 6:-0.344055 7:0.186764 
1.68 1:0.197504 2:0.0598002 3:0.227882 4:-0.250203 5:-0.291638 6:-0.00854052 7:0.00120194 
-1.68 1:0.154753 2:-0.153998 3:0.776065 4:-7.26217e-06 5:-0.00862468 6:0.00473523 7:-0.0153206 
-1.342657427500921 1:0.22792 2:0.0837095 3:0.661752 4:0.355063 5:-0.259206 6:0.0107637 7:0.00219906 
-0.2531025451354192 1:-0.00731248 2:0.163453 3:0.681535 4:-0.13783 5:-0.00572242 6:-0.00515845 7:0.279114 
1.68 1:0.0486887 2:-0.0172623 3:0.459506 4:0.251534 5:0.121088 6:-0.00829587 7:-0.00597454 
1.68 1:-0.178846 2:-0.102299 3:0.88989 4:-0.0160317 5:-0.13647 6:0.0090041 7:0.00237253 
0.9898164403438421 1:-0.0054799 2:0.00841591 3:0.614599 4:0.0945019 5:0.108384 6:-0.18727 7:0.528755 
1.509055978960126 1:0.203038 2:-0.144862 3:0.0225161 4:0.268172 5:0.146593 6:-0.0064717 7:0.00686235 
1.68 1:-0.22388 2:0.189169 3:0.110106 4:-0.00597979 5:0.00715197 6:0.000339286 7:-0.00930318 
-0.3270984529350731 1:0.0121228 2:-3.14379e-05 3:0.452684 4:0.00567355 5:0.00738073 6:0.226704 7:0.0511598 
-1.68 1:-0.0971828 2:0.190489 3:0.675651 4:-0.133474 5:-0.187011 6:-0.00790145 7:0.0186674 
0.1666036634408737 1:-0.0861711 2:0.0351816 3:0.494404 4:0.456549 5:0.340056 6:-0.515327 7:0.141255 
-1.68 1:-0.321182 2:0.094949 3:0.0570766 4:-0.00887396 5:-0.00357921 6:0.00222272 7:-0.0113044 
-0.08021463861321018 1:-0.0612784 2:0.212969 3:0.881636 4:-0.312623 5:0.0319027 6:0.0092819 7:0.00135406 
1.68 1:-0.0888361 2:0.140098 3:0.245918 4:-0.00591443 5:-0.00728056 6:0.0107733 7:-0.00363885 
-0.8973360949363282 1:0.0173388 2:0.0872109 3:0.799958 4:0.316246 5:0.270393 6:-0.00276223 7:0.375451 
0.06502470210367219 1:-0.184418 2:0.154361 3:0.567604 4:0.357959 5:-0.113299 6:-0.00867469 7:0.00548376 
1.68 1:0.0532761 2:-0.100546 3:0.599855 4:0.182766 5:-0.33535 6:0.0273272 7:-0.286004 
-1.68 1:-0.0245157 2:0.00662707 3:0.0680251 4:-0.211631 5:0.0768073 6:0.00956872 7:0.00591553 
-0.1501680570125583 1:-0.340598 2:-0.0807458 3:0.640838 4:-0.01116 5:-0.00141696 6:-0.421353 7:-0.0325919 
-1.68 1:-0.0552273 2:0.0492409 3:0.470197 4:-0.292088 5:0.305426 6:-0.0914739 7:0.187233 
1.68 1:-0.136437 2:0.162764 3:0.40489 4:0.233123 5:-0.272653 6:0.000874792 7:-0.00998237 
-1.68 1:0.00148481 2:-0.00166932 3:0.209419 4:0.0063398 5:-0.00776015 6:1.33013e-05 7:-7.35454e-06 
-1.595011239854235 1:-0.0156308 2:0.259022 3:0.80095 4:3.76184e-06 5:1.47262e-05 6:0.00966531 7:-0.00325379 
-1.68 1:0.0338457 2:-0.0654323 3:0.300766 4:0.197023 5:-0.323717 6:0.00913008 7:-0.00170682 
-1.68 1:-0.0930926 2:0.0483306 3:0.096303 4:-0.275042 5:0.369759 6:0.00919583 7:-0.00141151 
-0.2637402868301983 1:0.0196776 2:0.0388072 3:0.516702 4:-0.304404 5:0.0113667 6:0.219133 7:0.406815 
0.1187016513345106 1:-0.0910112 2:0.147679 3:0.723048 4:-0.00583061 5:0.00717057 6:-0.249682 7:0.426089 
0.04304379165310063 1:-0.0753029 2:0.255736 3:0.19749 4:0.398714 5:0.309861 6:-0.00914469 7:-0.00404881 
-0.1827167026617836 1:-0.00641823 2:0.0290796 3:0.460807 4:-0.227649 5:0.191473 6:0.130082 7:0.169551 
-1.68 1:0.0078687 2:0.0107625 3:0.422909 4:0.117408 5:-0.0644303 6:0.0244477 7:0.190284 
1.68 1:0.0346948 2:-0.0272813 3:0.480782 4:-0.101215 5:-0.128229 6:0.245767 7:-0.152265 
0.6854512056627281 1:-0.0209298 2:-0.0093884 3:0.559205 4:0.262319 5:-0.121552 6:-0.203119 7:0.141848 
-0.7022370430004435 1:0.00634219 2:0.0082018 3:0.447486 4:-0.137668 5:0.205975 6:0.148194 7:-0.11163 
1.647159933580507 1:0.0135981 2:0.0922335 3:0.464414 4:0.191961 5:-0.0542255 6:0.0489107 7:0.346426 
1.385781207316092 1:-0.073414 2:-0.121779 3:0.279371 4:-0.00229342 5:-0.0312444 6:-0.183511 7:-0.253741 
1.68 1:-0.17704 2:-0.136192 3:0.242265 4:-0.277532 5:0.330241 6:0.0145545 7:-0.000574036 
0.131199655828363 1:-0.00355195 2:0.041356 3:0.571294 4:0.000123995 5:-0.0149549 6:0.0681818 7:0.237596 
-0.1940698704599376 1:0.00433873 2:0.31549 3:0.196732 4:-0.00681357 5:-0.00702312 6:-0.00666196 7:-0.00779757 
-0.1979139448640329 1:0.136056 2:0.262915 3:0.291277 4:0.235773 5:0.0923306 6:-0.0024121 7:0.0129906 
1.68 1:0.0362858 2:0.0240682 3:0.52598 4:0.00529164 5:0.00767278 6:0.212533 7:0.178153 
-0.08219308506698654 1:-0.000340164 2:0.018646 3:0.694534 4:0.23866 5:0.141245 6:-0.347291 7:0.356649 
0.8980017409767411 1:0.0947761 2:0.174079 3:0.67641 4:0.216612 5:0.448206 6:0.00920233 7:-0.00813438 
0.3408249495568405 1:-0.359572 2:-0.216277 3:0.292284 4:-0.0168685 5:-0.00779605 6:0.0168989 7:0.00803878 
-1.68 1:0.00473163 2:-0.0068039 3:0.872496 4:-0.00331966 5:0.0184167 6:-0.00935957 7:-0.00141011 
1.2328586272491 1:-0.350592 2:0.00750294 3:0.0877588 4:0.273642 5:-0.0365013 6:0.0114566 7:-0.0145688 
-0.6195303066866895 1:0.0377564 2:0.186978 3:0.243714 4:-0.00212628 5:0.0184115 6:0.0488101 7:0.263216 
-0.8383079582601269 1:-0.223107 2:0.292587 3:0.700843 4:0.364817 5:-0.151223 6:0.00917578 7:-0.00672533 
-1.68 1:0.0103899 2:-0.00506066 3:0.502221 4:-0.00361788 5:-0.0107859 6:0.191801 7:-0.0153069 
1.68 1:-0.0868475 2:0.0430825 3:0.656339 4:0.0354174 5:-0.0606539 6:-0.0141438 7:0.0128378 
-1.442324466826917 1:0.0270368 2:-0.171959 3:0.40745 4:0.00282694 5:0.0188908 6:-0.0453656 7:-0.222299 
-0.5780551779756404 1:-0.112691 2:0.0056646 3:0.334615 4:0.0841963 5:-0.21068 6:-0.498651 7:0.0938719 
0.8368417096410798 1:0.13578 2:-0.183013 3:0.325763 4:-0.32512 5:-0.385187 6:-0.00917561 7:0.0016165 
-0.5182063061961406 1:0.038907 2:-0.0382472 3:0.593268 4:-0.0312939 5:-0.472968 6:0.335375 7:-0.218641 
1.68 1:0.166345 2:-0.125859 3:0.533188 4:0.526316 5:-0.414305 6:-0.00393984 7:-0.00843638 
-0.744489364580741 1:-0.109336 2:0.0261485 3:0.405528 4:-0.392442 5:0.0411683 6:-0.233487 7:0.0580613 
-1.22110692046886 1:-0.0921936 2:0.367969 3:0.128367 4:-0.226023 5:-0.0824689 6:-0.0188959 7:0.00636724 
-0.01053146455450063 1:-0.0441849 2:0.0730194 3:0.265233 4:-0.231521 5:-0.0752403 6:-0.154458 7:0.458345 
0.1674498187091346 1:-0.155307 2:0.141837 3:0.721135 4:-0.471008 5:-0.109948 6:0.00670066 7:-0.00664881 
-1.68 1:-0.00197592 2:-0.0110717 3:0.533529 4:-0.00533115 5:-0.00779002 6:-0.278203 7:-0.521698 
0.8194933571174123 1:-0.119278 2:-0.0132192 3:0.88416 4:-0.381147 5:-0.451987 6:0.00924014 7:0.00194477 
1.275597880852771 1:0.0789806 2:0.175992 3:0.894714 4:-0.413672 5:0.418337 6:-0.00900237 7:-0.00239268 
0.08331968112360495 1:0.101995 2:0.109141 3:0.70638 4:0.0303346 5:-0.215575 6:0.249303 7:0.219963 
-0.3472619553566992 1:0.106156 2:0.108618 3:0.119129 4:-0.447215 5:-0.244043 6:0.398993 7:0.353716 
-1.68 1:0.0237418 2:-0.0124521 3:0.476728 4:0.149115 5:0.177604 6:0.0194852 7:0.00385688 
1.68 1:0.0699806 2:-0.0963391 3:0.598138 4:0.0187154 5:0.0066547 6:0.0896002 7:-0.160046 
-1.19151166445684 1:-0.00923096 2:-0.00697085 3:0.606267 4:-0.0191392 5:-0.205805 6:0.004792 7:0.0175399 
-1.397936588313194 1:0.00232427 2:0.00524609 3:0.469581 4:-0.00539056 5:0.00759221 6:0.0826732 7:0.298053 
-1.68 1:0.0208195 2:-0.00207998 3:0.468481 4:0.00420731 5:-0.00762505 6:0.152556 7:0.0798957 
1.68 1:0.00728199 2:-0.0577387 3:0.485579 4:0.188032 5:0.0573081 6:-0.0043863 7:-0.0112212 
-1.552519655008818 1:0.286827 2:0.0719723 3:0.726482 4:-0.00335293 5:-0.0115721 6:0.251159 7:0.0138286 
0.6992305914886814 1:-0.191438 2:0.153186 3:0.695057 4:0.0506555 5:-0.246386 6:-0.203169 7:0.164891 
0.08534128961599145 1:-0.0154672 2:-0.0104002 3:0.664404 4:0.0864105 5:0.246981 6:-0.135522 7:-0.244431 
-1.68 1:-0.0830556 2:-0.00407561 3:0.451538 4:-0.191258 5:-0.175522 6:-0.0130668 7:0.00325902 
0.3028950513181425 1:-0.250569 2:-0.133842 3:0.285644 4:-0.303604 5:-0.168327 6:-0.00706418 7:-0.00946576 
-0.2305232842551154 1:-0.318493 2:-0.237169 3:0.885071 4:0.291512 5:0.133352 6:-0.0192563 7:0.00112111 
-1.68 1:0.00344372 2:0.00135013 3:0.679211 4:0.0151911 5:0.0118867 6:0.000188854 7:-0.0102423 
-1.68 1:-0.0896154 2:-0.0216441 3:0.434026 4:0.331536 5:0.178459 6:0.00827831 7:0.00438972 
-0.5852171254815929 1:-0.128354 2:0.0336071 3:0.639592 4:-0.259101 5:0.198025 6:-0.351699 7:0.164855 
-1.526418959977297 1:-0.0737229 2:0.0558584 3:0.478882 4:-0.0840694 5:0.368816 6:0.00496324 7:-0.00893575 
0.348028936104864 1:0.00443275 2:-0.0280932 3:0.633393 4:0.00610182 5:-0.00820057 6:-0.0369556 7:-0.313834 
-1.269947846196666 1:-0.209894 2:-0.145475 3:0.375379 4:0.275912 5:0.229544 6:-0.131208 7:-0.173479 
-0.1955416818127295 1:0.0300725 2:0.167852 3:0.783101 4:0.0293771 5:-0.215516 6:0.0408139 7:0.341675 
1.68 1:0.101468 2:-0.100967 3:0.548826 4:0.0492206 5:-0.0482981 6:0.00717995 7:-0.0113062 
0.7778340060016948 1:0.0263979 2:-0.118972 3:0.135502 4:0.0829902 5:-0.374989 6:-0.00194905 7:0.00911489 
1.149738481074137 1:0.149444 2:-0.366626 3:0.965523 4:-0.00557183 5:-0.00747227 6:-0.0117194 7:0.00174804 
1.68 1:0.189779 2:-0.0522018 3:0.997191 4:0.00654904 5:0.00756142 6:-0.00257604 7:0.0111284 
1.68 1:0.106643 2:-0.0995194 3:0.619574 4:0.00277206 5:-0.0110812 6:0.165398 7:-0.12894 
-0.9344589699455563 1:0.146534 2:0.0904987 3:0.138527 4:0.2466 5:0.486692 6:0.107913 7:0.201764 
-1.68 1:-0.0421256 2:-0.0544492 3:0.613797 4:-0.394661 5:-0.181464 6:0.0595048 7:-0.135444 
-1.171205777251492 1:0.112063 2:0.283947 3:0.569789 4:-0.0438688 5:-0.141285 6:0.000348162 7:0.0215402 
-1.68 1:0.169868 2:-0.138906 3:0.922139 4:0.00946074 5:0.0193545 6:-0.00946677 7:-0.00323405 
-0.9427482460731044 1:0.0391858 2:-0.0246953 3:0.6949 4:0.00683655 5:0.00730345 6:-0.0129335 7:-0.0152905 
1.029515091324718 1:-0.0386761 2:0.139313 3:0.39764 4:-0.00912242 5:-0.00240443 6:-0.134126 7:0.464942 
0.8978645031113064 1:-0.0055792 2:0.0974171 3:0.537301 4:-0.386162 5:0.291615 6:0.121863 7:0.199629 
-1.68 1:-0.0251466 2:0.0230878 3:0.397673 4:-0.279305 5:0.130359 6:0.0317935 7:0.0622655 
-0.5492363390419267 1:-0.192896 2:-0.311641 3:0.224924 4:-0.0118856 5:0.0688952 6:0.0111973 7:0.00122153 
-1.68 1:-0.00246484 2:-0.00422615 3:0.482349 4:-0.00296334 5:0.0108669 6:-0.0629813 7:-0.153931 
-1.68 1:-0.0311128 2:0.0418184 3:0.215309 4:-0.0455581 5:-0.159956 6:-0.000903988 7:-0.0108742 
-0.4799082425576049 1:0.16116 2:-0.0329629 3:0.731874 4:0.194285 5:-0.486341 6:0.35674 7:-0.0531881 
-0.03232467825401482 1:0.0305055 2:0.0326692 3:0.597902 4:-0.0123023 5:-0.360474 6:0.247417 7:0.538617 
1.68 1:-0.0929073 2:0.00312737 3:0.138365 4:0.512885 5:0.297108 6:0.0198491 7:-0.00502329 
0.4469687841384291 1:-0.259642 2:-0.0979838 3:0.659605 4:-0.438172 5:0.311931 6:0.00935411 7:0.000627914 
-0.3229744828744479 1:0.232762 2:-0.159232 3:0.540717 4:0.00556108 5:-0.00754771 6:0.00537149 7:-0.0106388 
-0.3895693947818659 1:0.0727795 2:0.122787 3:0.244028 4:-0.106105 5:-0.311415 6:0.214751 7:0.498871 
1.68 1:0.262168 2:-0.117053 3:0.0750754 4:-0.000719696 5:-0.0107273 6:-0.00338653 7:-0.0200824 
0.112885846203203 1:-0.195941 2:-0.0532787 3:0.785642 4:0.137451 5:-0.13369 6:0.0115298 7:-0.000668166 
-0.522338137452997 1:-0.000800169 2:0.0030871 3:0.489741 4:-0.197031 5:0.0803364 6:0.269375 7:0.0582191 
0.8445186218686462 1:0.0270746 2:-0.214767 3:0.74182 4:-0.513147 5:-0.246965 6:-0.00980652 7:0.0153059 
1.68 1:0.0744733 2:0.0614164 3:0.33365 4:0.0147819 5:0.0105799 6:0.266083 7:0.274388 
-1.145148131183337 1:0.10698 2:-0.119946 3:0.350824 4:0.0112658 5:-0.000164673 6:0.199462 7:-0.266944 
-1.68 1:0.0434874 2:-0.041161 3:0.071681 4:0.333221 5:0.00273678 6:0.0107726 7:0.00528939 
1.68 1:-0.14231 2:-0.211537 3:0.940765 4:-0.0120009 5:-7.24985e-05 6:0.00797419 7:0.00504901 
1.68 1:-0.211345 2:0.00462651 3:0.403986 4:-0.00559219 5:-0.00760314 6:0.00900469 7:0.00694599 
-0.8337547790791333 1:0.0156558 2:-0.00601602 3:0.737414 4:-0.0746675 5:0.242184 6:0.205642 7:-0.526449 
0.06367712180152695 1:0.124756 2:0.0573732 3:0.680994 4:-0.508559 5:-0.246586 6:0.280054 7:0.247491 
-1.68 1:-0.0792672 2:-0.0175601 3:0.397364 4:-0.407228 5:-0.155512 6:-0.0841142 7:-0.12845 
-1.596506321623976 1:-0.0641523 2:0.0346577 3:0.337885 4:0.00999001 5:-0.153215 6:-0.00180923 7:0.0258514 
-0.2011267648011564 1:-0.159241 2:0.0927363 3:0.331037 4:-0.0229583 5:0.0120203 6:-0.00380707 7:-0.00855376 
1.68 1:0.106642 2:-0.175525 3:0.794745 4:-0.0025537 5:0.0118499 6:-0.00953256 7:0.00281491 
1.68 1:-0.0681037 2:-0.103483 3:0.298939 4:0.151919 5:-0.261709 6:-0.011898 7:-0.000697388 
-0.4478695401308216 1:0.0251422 2:0.00810161 3:0.6297 4:0.126478 5:-0.364199 6:-0.0536777 7:0.162422 
-0.008865054571190849 1:-0.0291613 2:0.0160005 3:0.408856 4:0.236416 5:-0.159395 6:-0.443404 7:0.386103 
-0.3927289406212818 1:0.0863536 2:-0.348738 3:0.926185 4:0.104283 5:-0.234671 6:-0.010546 7:0.00501494 
-1.68 1:0.203151 2:0.044309 3:0.429867 4:0.252706 5:-0.448994 6:-0.00163377 7:0.0101536 
-1.68 1:-0.125988 2:0.075721 3:0.319403 4:0.23704 5:-0.106935 6:-0.0249754 7:0.0206603 
-1.68 1:0.294725 2:0.035287 3:0.215125 4:0.0100727 5:0.00812873 6:0.0340419 7:0.0201816 
-1.68 1:0.030692 2:0.0250057 3:0.68994 4:0.0673093 5:-0.123351 6:0.176213 7:-0.00927794 
-1.68 1:0.00790673 2:-0.0195843 3:0.564508 4:0.0563054 5:-0.167233 6:-0.100941 7:-0.171277 
1.151920061865667 1:-0.265412 2:0.00913299 3:0.833228 4:-0.160299 5:-0.117598 6:0.0081517 7:0.00774852 
-1.68 1:-0.0202606 2:0.034098 3:0.370619 4:-0.245328 5:-0.467726 6:0.0255958 7:0.270033 
1.68 1:0.0629941 2:0.0310459 3:0.39324 4:0.0418309 5:-0.216214 6:0.00702339 7:0.00291582 
-1.074332598136293 1:-0.000362624 2:-0.00855721 3:0.546598 4:0.00368912 5:0.00664985 6:-0.0571645 7:-0.515154 
0.2332473898191467 1:-0.106984 2:0.0714618 3:0.188837 4:-0.203414 5:-0.476733 6:0.00459857 7:-0.00888266 
-0.2959000585145631 1:0.202617 2:0.110373 3:0.714746 4:0.00651074 5:0.00759334 6:0.243864 7:0.0995495 
0.3598177948699157 1:-0.068654 2:-0.0271446 3:0.457166 4:0.0111121 5:0.00479631 6:-0.502978 7:-0.0928493 
0.7358673955269335 1:-0.0897609 2:0.0237215 3:0.835009 4:0.238583 5:0.123969 6:5.26787e-06 7:5.70944e-06 
-0.1906004610788058 1:-0.0425524 2:0.00850208 3:0.709313 4:2.23239e-06 5:-7.44074e-06 6:-0.130298 7:0.165726 
-1.38968165820487 1:0.0871435 2:-0.400816 3:0.850879 4:0.127392 5:0.16797 6:-0.00723308 7:0.00957538 
-1.68 1:0.00220375 2:0.00316878 3:0.45777 4:0.0119992 5:0.000157119 6:0.0196858 7:0.177487 
-0.2893275255334039 1:0.122166 2:0.0518947 3:0.111201 4:-0.0275466 5:0.176438 6:0.00836231 7:0.00779444 
-1.68 1:0.202127 2:-0.304295 3:0.409366 4:0.0211039 5:0.00457895 6:0.00801101 7:-0.0427408 
1.68 1:-0.0499057 2:-0.100628 3:0.117432 4:-0.00378185 5:0.0113307 6:0.00835135 7:0.00754983 
-1.68 1:-0.0577941 2:0.026052 3:0.463568 4:-0.506651 5:0.246436 6:-0.200814 7:0.0825582 
0.5424254807742481 1:0.263499 2:-0.137523 3:0.394482 4:-0.21431 5:0.0348365 6:0.000321052 7:0.00996893 
-1.68 1:-0.0579583 2:-0.104472 3:0.291921 4:0.00386971 5:0.211744 6:-0.118789 7:-0.198873 
0.01191022338194446 1:0.0324475 2:-0.0225621 3:0.447268 4:0.011254 5:-0.000370944 6:0.305661 7:-0.253531 
0.8895803726214007 1:-0.0264117 2:-0.156246 3:0.960567 4:0.37151 5:-0.140312 6:0.00841506 7:-0.00434939 
-1.68 1:0.0202177 2:-0.0199661 3:0.451997 4:-0.115386 5:0.0165773 6:0.268561 7:-0.351313 
-0.8192275113747881 1:-0.053378 2:0.24837 3:0.194786 4:0.3608 5:-0.255675 6:-0.0108215 7:0.0164397 
1.68 1:0.0326521 2:-0.00512287 3:0.612872 4:-0.0117809 5:-0.0157664 6:0.17047 7:0.125599 
-0.6994302879418268 1:-0.0480824 2:0.0990323 3:0.787943 4:0.53598 5:0.0531835 6:-0.00697636 7:-0.00615358 
-0.9835759362446613 1:0.291834 2:-0.157815 3:0.594062 4:-0.363256 5:0.221985 6:0.0721433 7:-0.00244034 
1.356048711824365 1:-0.112844 2:0.211692 3:0.677702 4:-0.23839 5:0.0479166 6:0.00418878 7:-0.00841221 
-1.68 1:0.0215348 2:-0.0205951 3:0.307101 4:-0.441796 5:0.148108 6:0.127396 7:0.071688 
0.6967246656681253 1:0.261774 2:-0.127392 3:0.893271 4:-0.0223909 5:0.144456 6:-0.00941536 7:0.0069552 
-0.7138790845832119 1:0.0164402 2:-0.000878147 3:0.518081 4:0.0116988 5:0.000402189 6:0.561257 7:0.0232245 
0.8435396158992569 1:-0.133332 2:0.136896 3:0.40577 4:0.546779 5:-0.0428067 6:0.0044125 7:0.0105196 
1.075721829172317 1:5.00433e-05 2:-0.10395 3:0.33332 4:0.396516 5:-0.248468 6:0.0074204 7:0.00439414 
1.68 1:0.0636995 2:0.208032 3:0.209648 4:-9.59752e-05 5:0.00862332 6:-0.00977231 7:-0.00329969 
0.1823569275442892 1:0.033589 2:0.0341165 3:0.326007 4:-0.165673 5:-0.27255 6:0.320448 7:0.294502 
-0.7795392022965093 1:0.1244 2:0.309488 3:0.135163 4:-0.114268 5:0.419954 6:-0.00675889 7:0.00992466 
-0.3089906003676118 1:0.143171 2:0.0811778 3:0.962913 4:0.358255 5:-0.312214 6:-0.00741823 7:-0.00562952 
-1.68 1:-0.202152 2:0.14855 3:0.279601 4:0.00591774 5:0.00719041 6:-0.0202638 7:-0.000991839 
1.68 1:-0.0141992 2:0.0410689 3:0.43001 4:0.00492471 5:-0.0424246 6:0.00681848 7:0.260714 
0.3358795225509648 1:0.0431808 2:-0.0409067 3:0.741866 4:-0.0821005 5:0.221653 6:0.138159 7:-0.338643 
1.387774647213571 1:0.0355427 2:-0.16848 3:0.543408 4:-0.331143 5:-0.155277 6:0.00838432 7:-0.0184579 
-1.68 1:0.0298526 2:-0.0259888 3:0.476259 4:-0.0518336 5:-0.123903 6:0.0109032 7:-0.0174372 
-1.68 1:-0.0128887 2:-0.0135085 3:0.396471 4:-0.45824 5:0.3213 6:0.157662 7:-0.0393211 
0.3203225619207216 1:0.161853 2:-0.0179907 3:0.588515 4:0.136606 5:-0.00699792 6:0.447866 7:0.0427851 
-0.155834805304422 1:-0.267874 2:-0.149626 3:0.330549 4:-0.00652035 5:-0.00759503 6:-0.0114548 7:-0.00330501 
-0.5069641860253936 1:-0.187546 2:0.315169 3:0.248124 4:-0.00266228 5:-0.011621 6:-0.116703 7:0.304906 
1.68 1:-0.0458529 2:0.0627263 3:0.621795 4:-0.00577386 5:0.00737758 6:-0.0803191 7:0.157324 
0.152965942590452 1:-0.0524733 2:0.113134 3:0.212363 4:-0.0439779 5:-0.227047 6:-0.18454 7:0.413354 
0.4616488117942723 1:0.0112114 2:-0.30285 3:0.326862 4:-0.358616 5:-0.276245 6:0.0545856 7:-0.303082 
-0.1500708560567654 1:0.00462424 2:-0.022682 3:0.401561 4:0.293769 5:-0.0924032 6:-0.152778 7:-0.336151 
-1.226537122731634 1:-0.0714947 2:-0.0340144 3:0.759149 4:-0.0379525 5:-0.292634 6:0.00862208 7:0.00340937 
-1.68 1:-0.00298788 2:0.0204361 3:0.304093 4:-0.20537 5:-0.250843 6:0.11231 7:0.176513 
1.193197133443808 1:0.00957537 2:-0.00608393 3:0.366592 4:0.0264836 5:0.0654462 6:0.236752 7:-0.255344 
-0.3851905582089903 1:0.0614071 2:0.206155 3:0.75164 4:0.348173 5:0.00524558 6:0.0120129 7:0.0150758 
-1.568664679162442 1:0.0770943 2:-0.385883 3:0.605617 4:-0.0273177 5:-0.0282542 6:0.0111178 7:-0.0168805 
-0.2746588274129909 1:0.180986 2:-0.106512 3:0.325365 4:0.114515 5:0.410566 6:-0.00531127 7:0.0197363 
-0.9347159392895291 1:0.0470441 2:0.0702622 3:0.616872 4:0.34723 5:0.466755 6:0.279752 7:0.363701 
1.600974104860033 1:-0.214961 2:0.19137 3:0.586383 4:0.451366 5:0.0825093 6:0.00605715 7:0.00825314 
1.355379987677629 1:0.211524 2:-1.05147e-05 3:0.635318 4:0.190831 5:-0.281785 6:0.251766 7:0.0891202 
1.165356840877981 1:0.203776 2:-0.171067 3:0.155179 4:-0.624817 5:-0.11691 6:-0.0160197 7:0.0156222 
-1.68 1:-0.0454046 2:0.111363 3:0.241034 4:-0.495399 5:0.148562 6:0.0269169 7:0.0757097 
-1.68 1:0.202043 2:0.134273 3:0.185366 4:-0.026885 5:-0.274121 6:0.00860319 7:0.0144443 
1.68 1:0.0977705 2:-0.0301824 3:0.437776 4:0.0789283 5:-0.109315 6:0.182956 7:-0.128449 
-1.137739675620556 1:-0.0111943 2:-0.00675875 3:0.408874 4:0.2181 5:-0.0490358 6:-0.171039 7:-0.136592 
-0.523208407884159 1:-0.0729459 2:-0.244837 3:0.246966 4:-0.0697568 5:-0.207475 6:-0.104309 7:-0.270685 
-1.227542141710462 1:-0.295135 2:0.171674 3:0.515448 4:0.00718866 5:0.00915142 6:-0.385226 7:0.230846 
1.68 1:0.179928 2:-0.129912 3:0.6835 4:-0.361042 5:0.267091 6:0.00184591 7:0.00928266 
1.68 1:-0.0529778 2:-0.0199243 3:0.514456 4:0.00923312 5:0.00207959 6:-0.235418 7:-0.0763709 
0.1980960294467041 1:-0.0299353 2:0.181076 3:0.673007 4:-0.241375 5:-0.0547027 6:-0.0517052 7:0.621523 
1.174626337042989 1:-0.113149 2:0.0543723 3:0.927674 4:0.526156 5:0.334848 6:0.00839495 7:0.00404482 
-0.7358254681588399 1:-0.120209 2:0.153901 3:0.0104683 4:-0.420806 5:0.0237553 6:0.00829339 7:-0.00458869 
-0.7406510797351232 1:-0.244645 2:-0.0215838 3:0.98406 4:-0.00797386 5:0.00512387 6:0.00913945 7:0.00257181 
-1.466814987500405 1:-0.19907 2:-0.250068 3:0.818546 4:-0.0088365 5:-0.00347275 6:-0.0175599 7:0.00855388 
1.68 1:-0.0980409 2:0.0258234 3:0.573232 4:-0.320966 5:0.0924073 6:-0.333098 7:0.104409 
0.03833660748708033 1:0.111082 2:-0.0933709 3:0.0446106 4:-0.252089 5:0.241467 6:-0.00507122 7:-0.0235096 
1.012590217308019 1:0.0478891 2:0.0265798 3:0.574863 4:0.303008 5:0.275224 6:0.244143 7:0.310447 
0.2686188933069384 1:-0.0111215 2:0.0112719 3:0.552756 4:0.358331 5:0.166079 6:-0.312319 7:-0.109546 
0.548103619109108 1:0.0755027 2:-0.00441306 3:0.879532 4:-0.330968 5:-0.00194088 6:-0.00928864 7:-0.00167735 
1.68 1:-0.0202781 2:-0.0843912 3:0.579424 4:0.365917 5:0.255893 6:-0.161914 7:-0.212643 
0.6396848232092895 1:0.0285067 2:0.47837 3:0.70519 4:-0.211002 5:-0.0608743 6:0.00565177 7:-0.00741551 
-1.68 1:-0.0140733 2:0.00248073 3:0.365989 4:-0.0055515 5:-0.00749046 6:-0.0236726 7:-0.166672 
0.1682688471050797 1:-0.0192104 2:-0.281257 3:0.167069 4:0.10857 5:-0.128657 6:0.00983143 7:0.00184571 
-1.371088085814254 1:0.0643287 2:0.0549483 3:0.616327 4:0.435338 5:0.232413 6:0.154913 7:0.268118 
-1.353534173784518 1:-0.199801 2:0.0226241 3:0.466489 4:0.294324 5:0.0962216 6:-0.0138072 7:-0.0169551 
1.68 1:-0.0425541 2:-0.0242725 3:0.528575 4:-0.295422 5:0.217504 6:0.00427225 7:0.0083245 
-0.1776258081282259 1:-0.0258391 2:-0.356921 3:0.062152 4:0.00569016 5:0.00742775 6:0.00630509 7:0.00709659 
1.68 1:-0.00372776 2:-0.137563 3:0.470579 4:-0.0801392 5:-0.104183 6:-0.0523733 7:-0.175796 
1.68 1:0.184231 2:0.0809887 3:0.12104 4:0.00620498 5:-0.00776464 6:-0.0192494 7:0.00621946 
1.154168557912409 1:-0.068436 2:0.162735 3:0.103251 4:0.17008 5:0.381812 6:0.00901858 7:-0.00255542 
0.3819066503750678 1:0.191002 2:0.117398 3:0.9351 4:-0.123412 5:0.43595 6:-0.00814234 7:-0.00452605 
-1.68 1:-0.0486179 2:0.357395 3:0.219926 4:0.00567982 5:0.00738394 6:-0.00713337 7:0.00743704 
-0.4777502034674694 1:0.443454 2:0.0562861 3:0.455655 4:-0.249448 5:-0.174605 6:0.00408922 7:0.0197157 
-1.68 1:-0.000434035 2:0.00427537 3:0.772784 4:-0.00149101 5:0.02008 6:-0.0064387 7:-0.00673672 
0.6425181186287069 1:-0.176134 2:0.378197 3:0.199584 4:-0.176513 5:0.0725042 6:0.0102426 7:-0.00651613 
-1.08013537465501 1:0.312262 2:0.282416 3:0.205532 4:0.00300135 5:0.0117628 6:0.0128426 7:0.0148171 
-1.68 1:0.25234 2:0.0457655 3:0.560492 4:-0.00314479 5:-0.0118352 6:0.0173611 7:0.0107816 
-1.267373014313254 1:0.0199143 2:-0.00741609 3:0.576083 4:0.0201221 5:0.00357129 6:0.109516 7:-0.139578 
-0.1266068370036378 1:-0.0826891 2:0.0715431 3:0.836574 4:0.0330274 5:-0.174312 6:-0.230065 7:0.18606 
1.68 1:0.0623725 2:-0.120136 3:0.509778 4:0.27827 5:0.100568 6:-0.00216735 7:-0.0113941 
-0.631285422797119 1:-0.0856433 2:0.103771 3:0.288618 4:-0.00286286 5:-0.0112395 6:-0.453692 7:0.666211 
-1.68 1:-0.1447 2:-0.125092 3:0.25521 4:0.151144 5:-0.193885 6:0.000144672 7:-0.0112169 
0.3212726486289617 1:-0.135265 2:0.135947 3:0.755899 4:0.276019 5:-0.0742464 6:-0.394701 7:0.481873 
-0.622540907884622 1:-0.0650987 2:-0.0174255 3:0.775047 4:0.496168 5:0.376574 6:-0.230309 7:-0.0968016 
1.68 1:-0.134119 2:0.179291 3:0.498568 4:-0.0395235 5:0.24573 6:-0.00265361 7:0.0112318 
1.68 1:0.117007 2:0.18024 3:0.811699 4:0.333433 5:-0.112988 6:-0.00928108 7:-0.00668505 
1.68 1:-0.0294073 2:0.157024 3:0.502043 4:-0.0811468 5:0.135573 6:0.00952536 7:0.00407284 
-1.68 1:0.0448213 2:0.0219931 3:0.436476 4:0.0797301 5:0.162495 6:0.255676 7:0.174621 
-0.2584669530354496 1:-0.0408577 2:-0.134353 3:0.0308238 4:0.125421 5:0.322081 6:0.00855206 7:0.00583998 
-1.68 1:-0.238349 2:0.274632 3:0.845593 4:-0.00951616 5:-0.00408484 6:0.0109152 7:0.00321317 
1.586738979365251 1:-0.35898 2:0.170806 3:0.15782 4:-0.00351803 5:-0.0108208 6:0.0034056 7:-0.0086806 
0.4550952850306717 1:0.140856 2:-0.0134346 3:0.080263 4:0.103546 5:0.4888 6:-0.00866602 7:0.003427 
-1.150206640990282 1:0.0354575 2:-0.00547893 3:0.709597 4:-0.293624 5:0.435834 6:0.142682 7:-0.189725 
1.68 1:-0.0351821 2:0.27888 3:0.534339 4:0.330222 5:-0.326213 6:0.000506881 7:0.01193 
-1.68 1:-0.00711659 2:0.00829187 3:0.522222 4:0.00304924 5:0.0115449 6:0.0039457 7:0.00887285 
-1.68 1:0.110897 2:0.0331178 3:0.0513553 4:-0.346919 5:-0.0683873 6:-0.0106542 7:-0.00368276 
1.68 1:0.00766349 2:-0.0536774 3:0.404759 4:0.0112729 5:6.27443e-05 6:0.0558069 7:-0.197004 
-1.68 1:0.0668734 2:-0.0306761 3:0.381858 4:0.398619 5:-0.126349 6:0.197607 7:0.0316343 
-0.6720133951519203 1:0.0204833 2:-0.00345132 3:0.500572 4:-0.00577677 5:0.00840522 6:0.675125 7:-0.201144 
-0.7607362647356408 1:-0.017568 2:-0.0013651 3:0.492334 4:0.708086 5:-0.214014 6:-0.402587 7:0.22015 
0.4821301610107679 1:0.149688 2:0.0206121 3:0.485961 4:-0.41272 5:0.200511 6:0.238661 7:-0.0653617 
0.7936213883181275 1:-0.116024 2:0.188268 3:0.704644 4:0.210805 5:-0.272006 6:0.0103045 7:-0.0063655 
1.68 1:-0.0515121 2:0.118791 3:0.185163 4:-0.00321172 5:-0.0116785 6:-0.00480054 7:-0.0107697 
0.6903203769812553 1:-0.201525 2:-0.0400859 3:0.767305 4:0.274154 5:-0.311253 6:0.00758522 7:0.00559615 
-0.9761973785171379 1:0.0387336 2:0.0353455 3:0.668438 4:0.0364705 5:0.42367 6:-0.00509519 7:-0.0107514 
-0.6572956675162961 1:-0.0316276 2:0.00199145 3:0.535015 4:-0.0130577 5:0.00671532 6:-0.728053 7:-0.188752 
-0.5819655154790236 1:-0.194913 2:-0.0329121 3:0.695406 4:-0.76182 5:0.00615984 6:-0.506057 7:-0.129615 
1.68 1:0.253251 2:-0.244594 3:0.849859 4:0.0938194 5:0.0231868 6:-0.00230806 7:0.00927572 
-1.265820875386008 1:0.00774724 2:-0.00238875 3:0.535706 4:0.00886403 5:-0.003577 6:0.221991 7:-0.0911264 
-0.7385773177684056 1:0.0131443 2:-0.00339914 3:0.372411 4:-0.00971759 5:0.304517 6:0.40233 7:-0.419874 
1.415861229287061 1:-0.0273776 2:0.0226919 3:0.580069 4:0.581511 5:-0.00294735 6:-0.277514 7:0.170634 
-0.01488607952768353 1:0.00700838 2:-0.00210154 3:0.331903 4:-0.157008 5:-0.0692537 6:0.573782 7:-0.160175 
0.2300878660631674 1:0.222946 2:0.279241 3:0.466046 4:0.365363 5:0.467501 6:0.00530412 7:0.0125052 
1.68 1:0.0673362 2:-0.0215803 3:0.521113 4:-0.227987 5:0.358489 6:0.287731 7:-0.198149 
0.8156485353236611 1:0.0342056 2:0.0939322 3:0.0818756 4:-0.449045 5:-0.203717 6:-0.00855534 7:0.00381797 
-1.68 1:0.0168259 2:0.00110008 3:0.700987 4:0.190433 5:0.027814 6:-0.00334959 7:0.00867548 
0.2097572552937601 1:0.312188 2:-0.163971 3:0.677875 4:0.163639 5:-0.222801 6:0.0127224 7:-0.0162001 
-1.68 1:-0.00687487 2:0.00452253 3:0.898431 4:-0.00899478 5:-0.018531 6:0.00923992 7:0.00125399 
1.68 1:0.247823 2:0.340452 3:0.0317999 4:-0.149604 5:-0.141122 6:0.00685533 7:-0.00648412 
0.07678590515941812 1:-0.0689465 2:0.177329 3:0.277378 4:0.204646 5:-0.0989871 6:-0.00673172 7:-0.00751236 
0.03411120144638752 1:0.232045 2:0.0105557 3:0.434357 4:0.225847 5:-0.246218 6:-0.00815511 7:-0.0045015 
0.05986499864873962 1:-0.107524 2:-0.178781 3:0.480368 4:-0.0400614 5:-0.130664 6:-0.0926548 7:-0.219212 
-1.363120999007931 1:0.00420495 2:0.00297446 3:0.46971 4:0.0111327 5:-6.83808e-05 6:0.300336 7:0.22553 
-1.68 1:0.0108798 2:-0.0180232 3:0.0535854 4:0.252249 5:0.278273 6:0.00982362 7:0.00548047 
-0.541436232391405 1:0.112049 2:0.248127 3:0.758534 4:-0.32416 5:0.281398 6:0.193155 7:0.203496 
0.3135087372393776 1:0.0389775 2:0.177272 3:0.33237 4:0.192852 5:-0.203784 6:-0.00930929 7:0.00116839 
0.1475724777231488 1:-0.298422 2:-0.315722 3:0.593957 4:-0.133447 5:-0.471531 6:-0.0173256 7:-0.0354256 
0.107997546690246 1:-0.0616774 2:0.0429303 3:0.266228 4:0.166267 5:-0.254017 6:-0.28675 7:0.301644 
-0.2723602650987244 1:-0.0647537 2:-0.284393 3:0.293478 4:-0.329264 5:-0.254557 6:-0.0122798 7:-0.304068 
0.07154817824588032 1:0.00221975 2:0.0811231 3:0.429235 4:0.179838 5:0.160516 6:-0.107291 7:0.210062 
-0.8621467412369794 1:-0.0209949 2:0.00471857 3:0.621514 4:-0.187211 5:0.143489 6:-0.0354819 7:-0.168608 
-1.68 1:0.0146849 2:-0.00896593 3:0.47688 4:0.17837 5:-0.0709298 6:0.143346 7:0.0773372 
-0.5043735954281503 1:0.0077182 2:0.0106304 3:0.511644 4:0.144768 5:0.138312 6:-0.199481 7:0.402304 
0.1725516769556934 1:0.164226 2:0.0510819 3:0.4637 4:-0.169541 5:0.41581 6:0.409057 7:0.0831109 
1.68 1:-0.0339054 2:-0.0308271 3:0.728379 4:0.379671 5:0.173449 6:0.0118772 7:0.072348 
1.68 1:-0.0614304 2:-0.0733905 3:0.488573 4:0.310888 5:0.42011 6:-0.00597239 7:-0.00795237 
-1.68 1:-0.0362171 2:-0.0171155 3:0.468875 4:0.360535 5:0.395994 6:0.00928704 7:0.0019893 
1.68 1:0.00152589 2:-0.126572 3:0.0406137 4:-0.00491515 5:0.0106837 6:-0.00731738 7:0.00575908 
-0.7915515382285018 1:0.0092726 2:0.00423205 3:0.551804 4:0.00561858 5:-0.00863768 6:0.43349 7:0.39028 
-1.194787236611103 1:0.0435153 2:-0.0340411 3:0.328566 4:0.535531 5:0.231168 6:0.0685658 7:-0.238182 
-1.68 1:-0.0118486 2:-0.0263428 3:0.625896 4:0.232167 5:-0.053218 6:-0.0502712 7:0.0486946 
-1.68 1:-0.336153 2:0.206277 3:0.251596 4:-0.000720705 5:0.0699845 6:-0.0167968 7:0.00485814 
-1.68 1:-0.014516 2:0.0186975 3:0.608239 4:-0.00502637 5:-0.0167472 6:-0.125852 7:0.636313 
0.2146418323337 1:0.0295654 2:-0.154013 3:0.849689 4:-0.328467 5:0.139257 6:0.0419047 7:-0.494023 
-0.198666515534736 1:-0.0612096 2:0.293627 3:0.511939 4:0.00220705 5:-0.00652496 6:0.000829608 7:0.0186866 
0.4672272700756997 1:0.0117314 2:0.000778145 3:0.81093 4:0.0431274 5:0.0923041 6:0.54026 7:-0.245285 
1.68 1:0.0243703 2:0.0767812 3:0.582695 4:-0.429343 5:-0.409525 6:-0.00106438 7:-0.00925918 
0.7841658006103984 1:0.0870243 2:-0.0947107 3:0.69506 4:-0.492086 5:0.187178 6:-0.00965406 7:-0.00236555 
0.2823929228626654 1:0.0384172 2:0.131094 3:0.564499 4:-0.0488217 5:-0.00550143 6:0.0950972 7:0.421032 
1.68 1:0.130472 2:0.0891779 3:0.330714 4:-0.000907658 5:-0.00307059 6:0.0099341 7:-0.000667565 
-1.179750967044134 1:0.00136199 2:0.0113832 3:0.454932 4:0.00540836 5:0.00835953 6:-0.0237003 7:0.155431 
0.7376013625212884 1:-0.19882 2:-0.0939627 3:0.0460474 4:-0.234236 5:-0.355726 6:0.00897901 7:-0.00247502 
0.08507314643053078 1:0.085485 2:-0.174384 3:0.905043 4:0.0110392 5:0.000382465 6:-0.0088329 7:-0.00293328 
-0.7284680413333307 1:-0.16508 2:0.0367226 3:0.66608 4:0.240412 5:-0.31117 6:-0.223027 7:0.115395 
0.8491606551067929 1:-0.167177 2:-0.0752494 3:0.180654 4:0.00626655 5:0.231468 6:0.0091567 7:0.00170855 
-1.604285792513254 1:-0.00232342 2:0.00189181 3:0.50259 4:0.298033 5:0.342713 6:-0.111905 7:-0.144063 
0.2103899023460605 1:0.226385 2:0.357367 3:0.979878 4:0.312887 5:0.208388 6:-0.00699203 7:-0.0074617 
1.68 1:-0.0500414 2:0.0119743 3:0.539807 4:0.0398625 5:0.0307387 6:-0.232861 7:0.140883 
-0.7065777327864636 1:-0.0421783 2:0.0457564 3:0.437634 4:-0.241351 5:0.267832 6:-0.416567 7:0.438984 
-0.01539865859610918 1:0.022457 2:-0.0226988 3:0.134973 4:-0.552642 5:0.246621 6:0.20809 7:0.0088491 
1.432700142483329 1:0.0330039 2:-0.154522 3:0.49513 4:-0.157777 5:0.128385 6:0.161844 7:-0.377094 
-0.9658755617684166 1:0.0323102 2:-0.057102 3:0.559263 4:0.173306 5:-0.371965 6:0.067806 7:-0.205407 
-0.7748640669484937 1:0.104904 2:-0.0293198 3:0.694175 4:-0.0115701 5:-0.215999 6:0.144805 7:-0.102499 
-1.335592932982329 1:0.200913 2:-0.0672332 3:0.308098 4:-0.259733 5:-0.420582 6:0.156941 7:-0.186309 
1.68 1:-0.125833 2:0.0104595 3:0.43042 4:0.263312 5:0.0802891 6:0.00188061 7:-0.00920418 
0.8976627242166814 1:-0.0257146 2:0.0409876 3:0.42124 4:-0.278348 5:-0.202081 6:0.00904627 7:0.0041884 
-1.68 1:-0.0347811 2:0.0253297 3:0.266546 4:0.19089 5:-0.304222 6:-0.178718 7:0.193455 
-1.640082694854273 1:-0.138225 2:0.139584 3:0.998567 4:-0.200577 5:-0.174553 6:0.00689376 7:-0.00629439 
1.68 1:-0.0206835 2:-0.0515112 3:0.824059 4:0.00319957 5:0.0114884 6:0.0090455 7:-0.00137865 
-0.5057380470535913 1:0.019708 2:-0.0725043 3:0.387491 4:-0.00693459 5:0.00618247 6:-0.0315826 7:-0.238473 
1.68 1:0.118621 2:0.140104 3:0.310083 4:0.130871 5:-0.20184 6:-0.00876962 7:0.00288154 
-1.68 1:0.0442193 2:-0.000131914 3:0.0404915 4:0.0186128 5:0.297034 6:0.00184123 7:0.00911452 
1.68 1:0.165952 2:0.084323 3:0.470825 4:-0.0118956 5:0.0162898 6:-0.00774995 7:-0.00633961 
0.4836933406115482 1:-0.0615062 2:0.0498764 3:0.313588 4:-0.443975 5:-0.214612 6:-0.0090264 7:-0.00726764 
0.3746347695756796 1:-0.0216427 2:-0.0010578 3:0.463925 4:0.0031841 5:-0.0111425 6:-0.363344 7:0.122128 
1.68 1:-0.0519561 2:0.179621 3:0.362754 4:-0.422912 5:0.0330672 6:-0.00987253 7:0.020038 
1.68 1:0.127086 2:-0.160965 3:0.519066 4:-0.0216398 5:0.00554108 6:-0.00174432 7:-0.0118001 
1.68 1:-0.0530057 2:-0.0834558 3:0.187219 4:0.000813161 5:0.00675281 6:0.0069439 7:0.00752077 
-0.5072703075368835 1:0.273144 2:-0.20086 3:0.962035 4:-0.0707931 5:0.0354163 6:-0.00797286 7:-0.00602524 
1.68 1:-0.197092 2:-0.0389584 3:0.752573 4:-0.144352 5:0.134933 6:-0.00308423 7:-0.0200738 
1.68 1:-0.0421856 2:-0.218831 3:0.75157 4:-0.00735088 5:-0.00249246 6:0.00787799 7:-0.00620084 
1.68 1:-0.039842 2:0.167021 3:0.824942 4:-0.00627827 5:-0.00781642 6:0.0061624 7:-0.0101342 
-1.68 1:-0.0302514 2:0.00955856 3:0.934075 4:-0.0118269 5:-0.000894237 6:0.00288611 7:-0.00957653 
-1.68 1:0.122863 2:0.0499477 3:0.167725 4:-0.544409 5:-0.255341 6:0.0189747 7:0.0346995 
-0.6034172452610354 1:0.0370927 2:0.0289605 3:0.386732 4:0.18943 5:-0.331586 6:0.314365 7:0.301327 
1.68 1:0.0984121 2:-0.0543689 3:0.341663 4:0.0359416 5:0.405823 6:0.0105588 7:0.0174822 
0.3095810990890154 1:0.0135546 2:-0.00829389 3:0.472933 4:-0.00891147 5:0.0183766 6:0.344621 7:-0.179032 
1.68 1:-0.138649 2:0.180771 3:0.912059 4:0.365149 5:-0.117436 6:0.0103548 7:-0.00553827 
0.1121754996793676 1:0.0571819 2:0.163643 3:0.832985 4:0.31254 5:-0.0541474 6:-0.0085274 7:0.31477 
-0.4567302480887038 1:0.212171 2:0.115029 3:0.0589878 4:0.277191 5:-0.149394 6:-0.0195945 7:-0.00476696 
-1.68 1:-0.0653954 2:0.350479 3:0.448647 4:0.276824 5:-0.348363 6:0.00784256 7:0.00513868 
-1.68 1:0.00420345 2:0.00653566 3:0.509367 4:-0.0196518 5:0.187549 6:0.16576 7:-0.0631539 
0.172552034374032 1:-0.110262 2:0.250967 3:0.17864 4:-0.348378 5:0.376722 6:-0.000535556 7:-0.00955754 
1.68 1:0.0698685 2:0.0288798 3:0.542224 4:0.00590176 5:0.00710493 6:0.182436 7:0.213651 
1.68 1:-0.0755215 2:-0.00915961 3:0.444163 4:0.232072 5:0.158341 6:0.0173583 7:0.00533672 
0.1517806247365375 1:-0.00947946 2:-0.225717 3:0.802789 4:-0.424514 5:0.38258 6:-0.00692824 7:0.00745434 
-1.301224599348264 1:0.0667813 2:-0.0880802 3:0.531116 4:0.284586 5:-0.425674 6:0.0232422 7:-0.188402 
-0.2864883322297805 1:0.0577313 2:0.0214215 3:0.540248 4:-0.376491 5:0.0921523 6:0.010961 7:0.0145824 
1.68 1:-0.185145 2:-0.089455 3:0.412269 4:-0.148654 5:0.276401 6:0.00341166 7:0.0110542 
-1.68 1:0.246336 2:0.169333 3:0.79703 4:-0.00307664 5:0.0111287 6:-0.00277435 7:-0.0182414 
1.328313307605474 1:-0.129861 2:-0.00621812 3:0.50554 4:-0.0166428 5:0.00796632 6:-0.432458 7:0.00893947 
-0.03180867815940534 1:0.0436188 2:-0.0411902 3:0.77494 4:-0.431884 5:0.0239856 6:0.287496 7:-0.129254 
-0.6288374742243902 1:0.0030937 2:-0.0133268 3:0.48276 4:-0.40006 5:-0.0411496 6:0.27553 7:-0.047119 
-0.9757912345551939 1:-0.0495015 2:-0.00236397 3:0.623069 4:-0.257558 5:-0.117083 6:-0.105498 7:0.10754 
-1.68 1:-0.0151834 2:0.0203782 3:0.582948 4:-0.00679998 5:0.0807007 6:-0.0854585 7:0.123779 
1.68 1:-0.103169 2:0.176595 3:0.0614718 4:-0.133407 5:-0.0199621 6:0.00230415 7:0.00901104 
0.2677651506732173 1:-0.0133027 2:-0.10226 3:0.373628 4:0.0605733 5:-0.182009 6:-0.153902 7:-0.48509 
1.208874009546579 1:0.350245 2:-0.0225693 3:0.230145 4:0.251374 5:-0.314681 6:-0.00834461 7:0.00044863 
1.68 1:0.116776 2:0.0617053 3:0.414649 4:0.444768 5:0.307514 6:0.00774421 7:0.0147686 
1.68 1:-0.00463117 2:0.00075646 3:0.483515 4:-0.00088885 5:0.0166522 6:-0.245164 7:-0.403268 
1.079573741669318 1:-0.269809 2:0.16683 3:0.36148 4:-0.00588885 5:0.00712702 6:-0.472463 7:0.255387 
-0.8169804679960038 1:0.0103487 2:-0.0150957 3:0.57444 4:-0.499788 5:-0.196611 6:0.199183 7:0.0307845 
-0.258636345061418 1:-0.00372008 2:-0.00299338 3:0.489814 4:0.00772852 5:0.00843069 6:-0.362049 7:-0.398939 
-0.7429394100956366 1:0.207547 2:-0.0371547 3:0.594849 4:-0.335794 5:-0.421277 6:-0.0142466 7:-0.0143434 
1.68 1:0.115501 2:0.0144411 3:0.618279 4:-0.0198417 5:-0.00387421 6:0.000797005 7:-0.00919616 
-1.383896415588243 1:0.00271837 2:0.0590641 3:0.607146 4:0.295287 5:0.260389 6:-0.00431841 7:0.010773 
-1.401786352059012 1:-0.0023137 2:0.00332965 3:0.479094 4:0.00334081 5:0.0111151 6:-0.270913 7:-0.115238 
1.68 1:0.150093 2:0.0462463 3:0.551024 4:-0.176665 5:-0.239926 6:0.24322 7:0.0112205 
1.68 1:-0.0125999 2:-0.037574 3:0.492912 4:-0.00652502 5:0.00429764 6:0.00622879 7:-0.330142 
0.1461712370096379 1:-0.0341551 2:0.117774 3:0.318038 4:0.0209211 5:-0.329537 6:-0.15291 7:0.608801 
-0.2791549688801984 1:0.0874515 2:-0.0158481 3:0.248807 4:-0.617409 5:0.113256 6:0.238226 7:0.0631907 
1.68 1:0.197948 2:0.0626161 3:0.598213 4:0.00876986 5:-0.00379712 6:-0.000302316 7:-0.00931444 
-1.68 1:-0.00114492 2:-0.00115786 3:0.321069 4:-0.00563649 5:-0.0074216 6:0.00627346 7:-0.00886706 
-0.08941312034547924 1:-0.0394621 2:-0.0230155 3:0.570562 4:-0.225913 5:-0.103308 6:-0.443208 7:-0.21554 
-0.257926719706556 1:-0.065983 2:-0.0698507 3:0.77745 4:-0.492818 5:-0.00457817 6:-0.196455 7:-0.325523 
-1.68 1:-0.0168317 2:0.0458324 3:0.808187 4:-0.286978 5:0.249406 6:-0.0114782 7:-0.00121958 
-0.01750058840668697 1:-0.173938 2:0.0547957 3:0.0892647 4:0.00296454 5:0.0111556 6:0.00612684 7:-0.00137796 
-0.6054951970880027 1:-0.0178441 2:0.00650077 3:0.430518 4:-0.104573 5:0.0954394 6:-0.632389 7:-0.0342418 
-0.9832024445243593 1:0.0143037 2:0.0109019 3:0.482197 4:-0.558597 5:-0.298424 6:0.182322 7:0.245733 
-0.7958395922203249 1:-0.0192194 2:-0.00592292 3:0.673835 4:0.127312 5:0.186557 6:-0.349324 7:-0.469097 
1.68 1:0.0480367 2:0.0848454 3:0.139741 4:-0.582045 5:0.0960967 6:-0.00312269 7:0.00976847 
-0.8918844114143351 1:-0.0738345 2:-0.0788034 3:0.353978 4:-0.00579811 5:-0.00729394 6:-0.234054 7:-0.345857 
1.09783716345183 1:-0.0236333 2:0.102687 3:0.38234 4:0.149984 5:-0.404451 6:0.0099423 7:0.00174228 
0.9963125408406397 1:0.0339399 2:0.00686873 3:0.504542 4:-0.00719417 5:0.0675095 6:0.230401 7:0.122169 
0.2128611162031163 1:-0.182131 2:-0.0109349 3:0.440916 4:-0.32324 5:0.123371 6:0.00248143 7:-0.00905837 
1.68 1:0.0251334 2:0.0103362 3:0.377752 4:0.00559849 5:-0.00754112 6:-0.0100263 7:-0.00191725 
1.68 1:0.043623 2:-0.038694 3:0.64137 4:0.00614963 5:-0.00799675 6:-0.00605281 7:0.00476056 
0.1094607348724227 1:-0.255011 2:-0.100234 3:0.0692764 4:0.39971 5:-0.141032 6:0.00759674 7:-0.00868232 
-1.68 1:-0.138057 2:0.0912873 3:0.718348 4:-0.00322737 5:0.011076 6:-0.00806694 7:0.0312029 
-0.2534597293136318 1:-0.0233007 2:-0.0483438 3:0.239193 4:0.0289941 5:0.0140725 6:-0.132738 7:-0.438505 
-0.07357156479071801 1:0.0714211 2:-0.0288549 3:0.579279 4:0.445234 5:-0.0799452 6:0.287356 7:0.0193328 
0.624119124160426 1:0.0088587 2:0.0454223 3:0.607165 4:0.00319048 5:-0.0106758 6:-0.0210051 7:0.39912 
-0.7559267987833713 1:-0.0102005 2:0.00675 3:0.584762 4:0.23247 5:0.325109 6:-0.0792156 7:-0.16952 
-0.1779243699952571 1:-0.00962239 2:-0.0254999 3:0.536274 4:-0.156081 5:-0.120925 6:0.0906721 7:-0.433724 
1.68 1:0.00488504 2:0.0507092 3:0.477314 4:-0.267681 5:-0.0397624 6:0.00707012 7:0.00766483 
1.68 1:0.0779902 2:-0.0268054 3:0.53893 4:0.0782724 5:-0.0328646 6:0.272488 7:-0.0128285 
1.68 1:-0.154297 2:-0.0213213 3:0.238688 4:0.00614738 5:-0.00813894 6:0.00853766 7:0.00516571 
-0.0722080298633479 1:0.167251 2:-0.100812 3:0.99304 4:-0.4864 5:0.189552 6:-0.00584198 7:0.00839246 
0.4971576635450047 1:-0.0207606 2:0.0154085 3:0.443062 4:0.124787 5:-0.353879 6:-0.0157566 7:0.208818 
-0.7440359317031864 1:0.0420219 2:-0.0155046 3:0.727435 4:0.411933 5:-0.203391 6:-0.0143016 7:0.078944 
-1.301942842774557 1:-0.166279 2:-0.0273491 3:0.87885 4:0.319041 5:-0.037854 6:0.00922018 7:0.00132088 
0.2037970361148211 1:-0.0956946 2:-0.153265 3:0.727012 4:0.391993 5:-0.0294485 6:0.00194221 7:0.0111669 
-0.1501977564191333 1:0.0405137 2:-0.0757544 3:0.74853 4:-0.299169 5:-0.186965 6:0.233295 7:-0.496619 
0.9352610300273547 1:0.0477152 2:0.116249 3:0.213086 4:-0.494443 5:-0.237873 6:0.25192 7:0.348159 
0.6748801781006593 1:-0.131976 2:0.0283289 3:0.331077 4:-0.394589 5:0.158914 6:0.00540593 7:-0.010558 
-1.68 1:-0.00138583 2:-0.00361744 3:0.510587 4:0.523703 5:0.0636109 6:-0.112624 7:-0.155329 
-0.983066688715779 1:0.00960553 2:-0.0153444 3:0.548981 4:-0.109331 5:-0.148176 6:0.0918619 7:-0.131883 
-1.68 1:0.107158 2:-0.0841419 3:0.954657 4:0.193942 5:0.11773 6:-0.0107982 7:0.0031946 
